2054961
0,59,29,7,14,9,10,83,118,44,1,179,76,215,174,17,91,99,52,53,55,113,205,180,135,194,105,104,201,172,122,187,208,200,124,119,23,40,120,84,114,5,186,128,152,227,108,148,41,125,109,13,166,92,171,57,56,24,22,207,45,75,28,199,94,173,112,159,158,222,110,164,43,18,226,12,163,203,167,51,220,142,130,60,225,177,140,127,218,98,202,223,11,81,65,189,221,157,103,212,196,197,64,123,217,153,147,69,72,78,181,138,175,211,131,79,229,58,213,219,136,139,228,178,195,20,216,32,141,3,37,87,102,145,149,170,185,89,169,8,183,165,67,16,63,133,47,46,96,184,146,15,21,214,74,88,143,49,27,34,35,36,115,33,204,101,80,26,168,54,111,154,132,39,61,77,93,107,150,25,160,191,129,86,62,209,19,182,162,176,6,31,70,161,134,156,38,66,206,126,117,82,73,71,2,198,30,42,48,50,190,192,193,224,4,100,90,95,106,144,210,155,137,188,121,151,85,97,68,116,0